\ENCODING=ISO-8859-1
\Problem name: TSP_n-10_s-2120934

Minimize
 obj1: 4801 x(1,2) + 610 x(1,3) + 3648 x(1,4) + 9306 x(1,5) + 9642 x(1,6)
       + 9041 x(1,7) + 6428 x(1,8) + 8052 x(1,9) + 8957 x(1,10) + 5325 x(2,3)
       + 6214 x(2,4) + 6737 x(2,5) + 5162 x(2,6) + 4775 x(2,7) + 6785 x(2,8)
       + 3343 x(2,9) + 4691 x(2,10) + 3325 x(3,4) + 9467 x(3,5) + 10063 x(3,6)
       + 9636 x(3,7) + 6295 x(3,8) + 8530 x(3,9) + 9552 x(3,10) + 7482 x(4,5)
       + 9609 x(4,6) + 10987 x(4,7) + 3291 x(4,8) + 8635 x(4,9) + 10902 x(4,10)
       + 4735 x(5,6) + 9616 x(5,7) + 4796 x(5,8) + 5609 x(5,9) + 9560 x(5,10)
       + 5542 x(6,7) + 8237 x(6,8) + 2004 x(6,9) + 5511 x(6,10) + 11267 x(7,8)
       + 4017 x(7,9) + 85 x(7,10) + 7955 x(8,9) + 11189 x(8,10) + 3966 x(9,10)
Subject To
 degree(1):  x(1,2) + x(1,3) + x(1,4) + x(1,5) + x(1,6) + x(1,7) + x(1,8)
             + x(1,9) + x(1,10)  = 2
 degree(2):  x(1,2) + x(2,3) + x(2,4) + x(2,5) + x(2,6) + x(2,7) + x(2,8)
             + x(2,9) + x(2,10)  = 2
 degree(3):  x(1,3) + x(2,3) + x(3,4) + x(3,5) + x(3,6) + x(3,7) + x(3,8)
             + x(3,9) + x(3,10)  = 2
 degree(4):  x(1,4) + x(2,4) + x(3,4) + x(4,5) + x(4,6) + x(4,7) + x(4,8)
             + x(4,9) + x(4,10)  = 2
 degree(5):  x(1,5) + x(2,5) + x(3,5) + x(4,5) + x(5,6) + x(5,7) + x(5,8)
             + x(5,9) + x(5,10)  = 2
 degree(6):  x(1,6) + x(2,6) + x(3,6) + x(4,6) + x(5,6) + x(6,7) + x(6,8)
             + x(6,9) + x(6,10)  = 2
 degree(7):  x(1,7) + x(2,7) + x(3,7) + x(4,7) + x(5,7) + x(6,7) + x(7,8)
             + x(7,9) + x(7,10)  = 2
 degree(8):  x(1,8) + x(2,8) + x(3,8) + x(4,8) + x(5,8) + x(6,8) + x(7,8)
             + x(8,9) + x(8,10)  = 2
 degree(9):  x(1,9) + x(2,9) + x(3,9) + x(4,9) + x(5,9) + x(6,9) + x(7,9)
             + x(8,9) + x(9,10)  = 2
 degree(10): x(1,10) + x(2,10) + x(3,10) + x(4,10) + x(5,10) + x(6,10)
             + x(7,10) + x(8,10) + x(9,10)  = 2
Bounds
 0 <= x(1,2) <= 1
 0 <= x(1,3) <= 1
 0 <= x(1,4) <= 1
 0 <= x(1,5) <= 1
 0 <= x(1,6) <= 1
 0 <= x(1,7) <= 1
 0 <= x(1,8) <= 1
 0 <= x(1,9) <= 1
 0 <= x(1,10) <= 1
 0 <= x(2,3) <= 1
 0 <= x(2,4) <= 1
 0 <= x(2,5) <= 1
 0 <= x(2,6) <= 1
 0 <= x(2,7) <= 1
 0 <= x(2,8) <= 1
 0 <= x(2,9) <= 1
 0 <= x(2,10) <= 1
 0 <= x(3,4) <= 1
 0 <= x(3,5) <= 1
 0 <= x(3,6) <= 1
 0 <= x(3,7) <= 1
 0 <= x(3,8) <= 1
 0 <= x(3,9) <= 1
 0 <= x(3,10) <= 1
 0 <= x(4,5) <= 1
 0 <= x(4,6) <= 1
 0 <= x(4,7) <= 1
 0 <= x(4,8) <= 1
 0 <= x(4,9) <= 1
 0 <= x(4,10) <= 1
 0 <= x(5,6) <= 1
 0 <= x(5,7) <= 1
 0 <= x(5,8) <= 1
 0 <= x(5,9) <= 1
 0 <= x(5,10) <= 1
 0 <= x(6,7) <= 1
 0 <= x(6,8) <= 1
 0 <= x(6,9) <= 1
 0 <= x(6,10) <= 1
 0 <= x(7,8) <= 1
 0 <= x(7,9) <= 1
 0 <= x(7,10) <= 1
 0 <= x(8,9) <= 1
 0 <= x(8,10) <= 1
 0 <= x(9,10) <= 1
Binaries
 x(1,2)  x(1,3)  x(1,4)  x(1,5)  x(1,6)  x(1,7)  x(1,8)  x(1,9)  x(1,10) 
 x(2,3)  x(2,4)  x(2,5)  x(2,6)  x(2,7)  x(2,8)  x(2,9)  x(2,10)  x(3,4) 
 x(3,5)  x(3,6)  x(3,7)  x(3,8)  x(3,9)  x(3,10)  x(4,5)  x(4,6)  x(4,7) 
 x(4,8)  x(4,9)  x(4,10)  x(5,6)  x(5,7)  x(5,8)  x(5,9)  x(5,10)  x(6,7) 
 x(6,8)  x(6,9)  x(6,10)  x(7,8)  x(7,9)  x(7,10)  x(8,9)  x(8,10)  x(9,10) 
End
